(declare-fun temp3640_1 () (_ BitVec 64))
(declare-fun temp3640_2 () (_ BitVec 64))
(declare-fun var76042 () (_ BitVec 64))
(declare-fun k!0 () Bool)
(declare-fun ARGNAME_input_NAMEEND_DIM () (_ BitVec 64))
(declare-fun ARGNAME_data_format_NAMEEND_STRFMT () (_ BitVec 64))
(declare-fun temp3640_3 () (_ BitVec 64))
(declare-fun ARGNAME_out_backprop_NAMEEND_DIM () (_ BitVec 64))
(declare-fun var76103 () (_ BitVec 64))
(declare-fun temp3640_4 () (_ BitVec 64))
(declare-fun temp3640_5 () (_ BitVec 64))
(declare-fun ARGNAME_input_NAMEEND_DIMSIZE
             ()
             (Array (_ BitVec 64) (_ BitVec 64)))
(declare-fun temp3640_6 () (_ BitVec 64))
(declare-fun temp3640_7 () (_ BitVec 64))
(declare-fun temp3640_8 () (_ BitVec 64))
(declare-fun temp3640_9 () (_ BitVec 64))
(declare-fun temp3640_10 () (_ BitVec 64))
(declare-fun temp3640_11 () (_ BitVec 64))
(declare-fun temp3640_12 () (_ BitVec 64))
(declare-fun temp3640_13 () (_ BitVec 64))
(declare-fun temp3640_14 () (_ BitVec 64))
(declare-fun temp3640_15 () (_ BitVec 64))
(declare-fun temp3640_16 () (_ BitVec 64))
(declare-fun temp3640_17 () (_ BitVec 64))
(declare-fun temp3640_18 () (_ BitVec 64))
(declare-fun var76131 () (_ BitVec 64))
(declare-fun temp3640_19 () (_ BitVec 64))
(declare-fun ARGNAME_out_backprop_NAMEEND_DIMSIZE
             ()
             (Array (_ BitVec 64) (_ BitVec 64)))
(declare-fun temp3640_20 () (_ BitVec 64))
(declare-fun temp3640_21 () (_ BitVec 64))
(declare-fun temp3640_22 () (_ BitVec 64))
(declare-fun temp3640_23 () (_ BitVec 64))
(declare-fun temp3640_24 () (_ BitVec 64))
(declare-fun temp3640_25 () (_ BitVec 64))
(declare-fun temp3640_26 () (_ BitVec 64))
(declare-fun temp3640_27 () (_ BitVec 64))
(declare-fun temp3640_28 () (_ BitVec 64))
(declare-fun temp3640_29 () (_ BitVec 64))
(declare-fun temp3640_30 () (_ BitVec 64))
(declare-fun temp3640_31 () (_ BitVec 64))
(declare-fun temp3640_32 () (_ BitVec 64))
(declare-fun var76165 () (_ BitVec 64))
(declare-fun temp3640_33 () (_ BitVec 64))
(declare-fun ARGNAME_input_NAMEEND_NUMELEMENT () (_ BitVec 64))
(declare-fun var76268 () (_ BitVec 64))
(declare-fun temp3640_34 () (_ BitVec 64))
(declare-fun temp3640_35 () (_ BitVec 64))
(declare-fun var275510 () (_ BitVec 64))
(declare-fun temp3640_36 () (_ BitVec 64))
(declare-fun var275528 () (_ BitVec 64))
(declare-fun temp3640_37 () (_ BitVec 64))
(declare-fun temp3640_38 () (_ BitVec 64))
(declare-fun var406582 () (_ BitVec 64))
(declare-fun temp3640_39 () (_ BitVec 64))
(declare-fun var406600 () (_ BitVec 64))
(declare-fun temp3640_40 () (_ BitVec 64))
(declare-fun temp3640_42 () (_ BitVec 64))
(declare-fun temp3640_41 () (_ BitVec 64))
(declare-fun temp3640_43 () (_ BitVec 64))
(declare-fun var603190 () (_ BitVec 64))
(declare-fun temp3640_44 () (_ BitVec 64))
(declare-fun var603208 () (_ BitVec 64))
(declare-fun temp3640_45 () (_ BitVec 64))
(declare-fun temp3640_47 () (_ BitVec 64))
(declare-fun temp3640_46 () (_ BitVec 64))
(declare-fun temp3640_49 () (_ BitVec 64))
(declare-fun temp3640_48 () (_ BitVec 64))
(declare-fun temp3640_51 () (_ BitVec 64))
(declare-fun temp3640_50 () (_ BitVec 64))
(declare-fun temp3640_53 () (_ BitVec 64))
(declare-fun temp3640_52 () (_ BitVec 64))
(declare-fun temp3640_54 () (_ BitVec 64))
(declare-fun var861259 () (_ BitVec 64))
(declare-fun var861238 () (_ BitVec 64))
(declare-fun var795670 () (_ BitVec 64))
(declare-fun temp3640_55 () (_ BitVec 64))
(declare-fun temp3640_56 () (_ BitVec 64))
(declare-fun var1057842 () (_ BitVec 64))
(declare-fun temp3640_57 () (_ BitVec 64))
(declare-fun var1123378 () (_ BitVec 64))
(declare-fun temp3640_58 () (_ BitVec 64))
(declare-fun var1188914 () (_ BitVec 64))
(declare-fun temp3640_60 () (_ BitVec 64))
(declare-fun temp3640_59 () (_ BitVec 64))
(declare-fun temp3640_62 () (_ BitVec 64))
(declare-fun temp3640_61 () (_ BitVec 64))
(assert (or (= ARGNAME_data_format_NAMEEND_STRFMT #x0000000000000000)
    (= ARGNAME_data_format_NAMEEND_STRFMT #x0000000000000001)
    (= ARGNAME_data_format_NAMEEND_STRFMT #x0000000000000002)
    (= ARGNAME_data_format_NAMEEND_STRFMT #x0000000000000003)
    (= ARGNAME_data_format_NAMEEND_STRFMT #x0000000000000004)
    (= ARGNAME_data_format_NAMEEND_STRFMT #x0000000000000005)))
(assert (= temp3640_1 #x0000000000000005))
(assert (= var76042
   (ite (= ARGNAME_input_NAMEEND_DIM temp3640_1)
        #x0000000000000001
        #x0000000000000000)))
(assert (= temp3640_2 #x0000000000000001))
(assert (= var76042 temp3640_2))
(assert (= temp3640_3 #x0000000000000005))
(assert (= var76103
   (ite (= ARGNAME_out_backprop_NAMEEND_DIM temp3640_3)
        #x0000000000000001
        #x0000000000000000)))
(assert (= temp3640_4 #x0000000000000001))
(assert (= var76103 temp3640_4))
(assert (= temp3640_5 #x0000000000000000))
(assert (= temp3640_6 (select ARGNAME_input_NAMEEND_DIMSIZE temp3640_5)))
(assert (= temp3640_7 #x0000000000000001))
(assert (= temp3640_8 (select ARGNAME_input_NAMEEND_DIMSIZE temp3640_7)))
(assert (= temp3640_9 #x0000000000000002))
(assert (= temp3640_10 (select ARGNAME_input_NAMEEND_DIMSIZE temp3640_9)))
(assert (= temp3640_11 #x0000000000000003))
(assert (= temp3640_12 (select ARGNAME_input_NAMEEND_DIMSIZE temp3640_11)))
(assert (= temp3640_13 #x0000000000000004))
(assert (= temp3640_14 (select ARGNAME_input_NAMEEND_DIMSIZE temp3640_13)))
(assert (= temp3640_15 #x0000000000000005))
(assert (= temp3640_16 (select ARGNAME_input_NAMEEND_DIMSIZE temp3640_15)))
(assert (= temp3640_17 #x0000000000000004))
(assert (= temp3640_18 (select ARGNAME_input_NAMEEND_DIMSIZE temp3640_17)))
(assert (= var76131 temp3640_18))
(assert (= temp3640_19 #x0000000000000000))
(assert (= temp3640_20 (select ARGNAME_out_backprop_NAMEEND_DIMSIZE temp3640_19)))
(assert (= temp3640_21 #x0000000000000001))
(assert (= temp3640_22 (select ARGNAME_out_backprop_NAMEEND_DIMSIZE temp3640_21)))
(assert (= temp3640_23 #x0000000000000002))
(assert (= temp3640_24 (select ARGNAME_out_backprop_NAMEEND_DIMSIZE temp3640_23)))
(assert (= temp3640_25 #x0000000000000003))
(assert (= temp3640_26 (select ARGNAME_out_backprop_NAMEEND_DIMSIZE temp3640_25)))
(assert (= temp3640_27 #x0000000000000004))
(assert (= temp3640_28 (select ARGNAME_out_backprop_NAMEEND_DIMSIZE temp3640_27)))
(assert (= temp3640_29 #x0000000000000005))
(assert (= temp3640_30 (select ARGNAME_out_backprop_NAMEEND_DIMSIZE temp3640_29)))
(assert (= temp3640_31 #x0000000000000004))
(assert (= temp3640_32 (select ARGNAME_out_backprop_NAMEEND_DIMSIZE temp3640_31)))
(assert (= var76165 temp3640_32))
(assert (= temp3640_33 #x0000000000000000))
(assert (= var76268
   (ite (= ARGNAME_input_NAMEEND_NUMELEMENT temp3640_33)
        #x0000000000000001
        #x0000000000000000)))
(assert (= temp3640_34 #x0000000000000000))
(assert (= var76268 temp3640_34))
(assert (= temp3640_35 #x0000000000000001))
(assert (= var275510 temp3640_35))
(assert (= temp3640_36 #x0000000000000001))
(assert (= var275528
   (ite (bvslt var275510 temp3640_36) #x0000000000000001 #x0000000000000000)))
(assert (= temp3640_37 #x0000000000000000))
(assert (= var275528 temp3640_37))
(assert (= temp3640_38 #x0000000000000001))
(assert (= var406582 temp3640_38))
(assert (= temp3640_39 #x0000000000000001))
(assert (= var406600
   (ite (bvslt var406582 temp3640_39) #x0000000000000001 #x0000000000000000)))
(assert (= temp3640_40 #x0000000000000000))
(assert (= var406600 temp3640_40))
(assert (= temp3640_42 #x0000000000000000))
(assert (= temp3640_41 temp3640_42))
(assert (= temp3640_43 #x0000000000000001))
(assert (= var603190 temp3640_43))
(assert (= temp3640_44 #x0000000000000001))
(assert (= var603208
   (ite (bvslt var603190 temp3640_44) #x0000000000000001 #x0000000000000000)))
(assert (= temp3640_45 #x0000000000000000))
(assert (= var603208 temp3640_45))
(assert (= temp3640_47 #x0000000000000000))
(assert (= temp3640_46 temp3640_47))
(assert (= temp3640_49 #x00000000000000ff))
(assert (= temp3640_48 temp3640_49))
(assert (= temp3640_51 #x00000000000000ff))
(assert (= temp3640_50 temp3640_51))
(assert (= temp3640_53 #x00000000000000ff))
(assert (= temp3640_52 temp3640_53))
(assert (= temp3640_54 #x0000000000000000))
(assert (= var861259 temp3640_54))
(assert (= var861238 var861259))
(assert (= var795670 var861238))
(assert (= temp3640_55 #x0000000000000000))
(assert (= var795670 temp3640_55))
(assert (= temp3640_56 #x0000000000008000))
(assert (= var1057842 temp3640_56))
(assert (= temp3640_57 #x0000000000040000))
(assert (= var1123378 temp3640_57))
(assert (= temp3640_58 #x0000000000200000))
(assert (= var1188914 temp3640_58))
(assert (= temp3640_60 #x0000000000000000))
(assert (= temp3640_59 temp3640_60))
(assert (= temp3640_62 #x0000000000000000))
(assert (= temp3640_61 temp3640_62))
(model-add temp3640_1 () (_ BitVec 64) #x0000000000000005)
(model-add temp3640_2 () (_ BitVec 64) #x0000000000000001)
(model-add var76042 () (_ BitVec 64) #x0000000000000001)
(model-del k!0)
(model-add ARGNAME_input_NAMEEND_DIM
           ()
           (_ BitVec 64)
           (ite k!0 #x0000000000000005 (bvnot #x0000000000000005)))



